n=17;
m=15;
Ba=4.544933;
Bp=1.413333;
Ha=[[0.000000,0.050000,0.050000,0.050000,0.050000,0.050000,0.050000,0.050000,0.300000,0.300000,0.300000,0.300000,0.300000,0.300000,0.300000,0.000000,0.000000],[0.000000,0.050000,0.050000,0.050000,0.050000,0.050000,0.050000,0.050000,0.300000,0.300000,0.300000,0.300000,0.300000,0.300000,0.300000,0.000000,0.000000],[0.000000,0.050000,0.050000,0.050000,0.050000,0.050000,0.050000,0.050000,0.300000,0.300000,0.300000,0.300000,0.300000,13.600000,13.600000,0.000000,0.000000],[0.000000,0.050000,0.050000,0.050000,0.050000,0.050000,0.050000,0.050000,0.300000,0.300000,0.300000,0.300000,0.300000,13.600000,13.600000,0.000000,0.000000],[0.000000,0.050000,0.050000,0.050000,0.050000,0.050000,5.850000,5.850000,5.850000,5.850000,5.850000,0.300000,0.300000,13.600000,13.600000,0.000000,0.000000],[0.000000,0.050000,0.050000,0.050000,0.050000,0.050000,5.850000,5.850000,5.850000,5.850000,5.850000,0.300000,0.300000,13.600000,13.600000,0.000000,0.000000],[0.000000,0.050000,0.050000,0.050000,0.050000,0.050000,5.850000,5.850000,5.850000,5.850000,5.850000,0.300000,0.300000,13.600000,13.600000,0.000000,0.000000],[0.000000,0.050000,0.050000,0.050000,0.050000,0.050000,0.050000,0.050000,0.300000,0.300000,0.300000,0.300000,0.300000,13.600000,13.600000,0.000000,0.000000],[0.000000,0.050000,0.050000,0.050000,0.050000,0.050000,0.050000,0.050000,0.300000,0.300000,0.300000,0.300000,0.300000,13.600000,13.600000,0.000000,0.000000],[0.000000,0.050000,0.050000,0.050000,0.050000,0.050000,0.050000,0.050000,0.300000,0.300000,0.300000,0.300000,0.300000,0.300000,0.300000,0.000000,0.000000],[0.000000,0.050000,0.050000,0.050000,0.050000,0.050000,0.050000,0.050000,0.300000,0.300000,0.300000,0.300000,0.300000,0.300000,0.054000,0.000000,0.000000],[0.000000,0.050000,0.050000,0.050000,0.050000,0.050000,0.050000,0.050000,0.300000,0.300000,0.300000,0.300000,0.300000,0.300000,0.054000,0.000000,0.000000],[0.000000,0.000000,0.000000,0.000000,0.000000,0.050000,0.050000,0.050000,0.300000,0.300000,0.300000,0.300000,0.300000,0.300000,0.054000,0.000000,0.000000],[0.000000,0.000000,0.000000,0.000000,0.000000,0.050000,0.050000,0.050000,0.300000,0.300000,0.300000,0.300000,0.300000,0.300000,0.054000,0.000000,0.000000],[0.000000,0.000000,0.000000,0.000000,0.000000,0.050000,0.050000,0.050000,0.050000,0.050000,0.050000,0.050000,0.050000,0.050000,0.054000,0.000000,0.000000]];
Ca=[[510.000000,0.750000,0.750000,0.750000,0.750000,0.750000,0.750000,0.750000,0.670000,0.670000,0.670000,0.670000,0.670000,0.670000,0.670000,0.000000,0.000000],[510.000000,0.750000,0.750000,0.750000,0.750000,0.750000,0.750000,0.750000,0.670000,0.670000,0.670000,0.670000,0.670000,0.670000,0.670000,0.000000,0.000000],[510.000000,0.750000,0.750000,0.750000,0.750000,0.750000,0.750000,0.750000,0.670000,0.670000,0.670000,0.670000,0.670000,0.125000,0.125000,0.000000,0.000000],[510.000000,0.750000,0.750000,0.750000,0.750000,0.750000,0.750000,0.750000,0.670000,0.670000,0.670000,0.670000,0.670000,0.125000,0.125000,0.000000,0.000000],[510.000000,0.750000,0.750000,0.750000,0.750000,0.750000,0.235000,0.235000,0.235000,0.235000,0.235000,0.670000,0.670000,0.125000,0.125000,0.000000,0.000000],[510.000000,0.750000,0.750000,0.750000,0.750000,0.750000,0.235000,0.235000,0.235000,0.235000,0.235000,0.670000,0.670000,0.125000,0.125000,0.000000,0.000000],[510.000000,0.750000,0.750000,0.750000,0.750000,0.750000,0.235000,0.235000,0.235000,0.235000,0.235000,0.670000,0.670000,0.125000,0.125000,0.000000,0.000000],[510.000000,0.750000,0.750000,0.750000,0.750000,0.750000,0.750000,0.750000,0.670000,0.670000,0.670000,0.670000,0.670000,0.125000,0.125000,0.000000,0.000000],[510.000000,0.750000,0.750000,0.750000,0.750000,0.750000,0.750000,0.750000,0.670000,0.670000,0.670000,0.670000,0.670000,0.125000,0.125000,0.000000,0.000000],[510.000000,0.750000,0.750000,0.750000,0.750000,0.750000,0.750000,0.750000,0.670000,0.670000,0.670000,0.670000,0.670000,0.670000,0.670000,0.000000,0.000000],[510.000000,0.750000,0.750000,0.750000,0.750000,0.750000,0.750000,0.750000,0.670000,0.670000,0.670000,0.670000,0.670000,0.670000,0.720000,0.000000,0.000000],[510.000000,0.750000,0.750000,0.750000,0.750000,0.750000,0.750000,0.750000,0.670000,0.670000,0.670000,0.670000,0.670000,0.670000,0.720000,0.000000,0.000000],[510.000000,510.000000,510.000000,510.000000,510.000000,0.750000,0.750000,0.750000,0.670000,0.670000,0.670000,0.670000,0.670000,0.670000,0.720000,0.000000,0.000000],[510.000000,510.000000,510.000000,510.000000,510.000000,0.750000,0.750000,0.750000,0.670000,0.670000,0.670000,0.670000,0.670000,0.670000,0.720000,0.000000,0.000000],[510.000000,510.000000,510.000000,510.000000,510.000000,0.750000,0.750000,0.750000,0.750000,0.750000,0.750000,0.750000,0.750000,0.750000,0.720000,0.000000,0.000000]];
Hp=[[0.000000,0.050000,0.050000,0.050000,0.050000,0.050000,0.050000,0.050000,0.300000,0.300000,0.300000,0.300000,0.300000,0.300000,0.300000,0.000000,0.000000],[0.000000,0.050000,0.050000,0.050000,0.050000,0.050000,0.050000,0.050000,0.300000,0.300000,0.300000,0.300000,0.300000,0.300000,0.300000,0.000000,0.000000],[0.000000,0.050000,0.050000,0.050000,0.050000,0.050000,0.050000,0.050000,0.300000,0.300000,0.300000,0.300000,0.300000,13.600000,13.600000,0.000000,0.000000],[0.000000,0.050000,0.050000,0.050000,0.050000,0.050000,0.050000,0.050000,0.300000,0.300000,0.300000,0.300000,0.300000,13.600000,13.600000,0.000000,0.000000],[0.000000,0.050000,0.050000,0.050000,0.050000,0.050000,5.850000,5.850000,5.850000,5.850000,5.850000,0.300000,0.300000,13.600000,13.600000,0.000000,0.000000],[0.000000,0.050000,0.050000,0.050000,0.050000,0.050000,5.850000,5.850000,5.850000,5.850000,5.850000,0.300000,0.300000,13.600000,13.600000,0.000000,0.000000],[0.000000,0.050000,0.050000,0.050000,0.050000,0.050000,5.850000,5.850000,5.850000,5.850000,5.850000,0.300000,0.300000,13.600000,13.600000,0.000000,0.000000],[0.000000,0.050000,0.050000,0.050000,0.050000,0.050000,0.050000,0.050000,0.300000,0.300000,0.300000,0.300000,0.300000,13.600000,13.600000,0.000000,0.000000],[0.000000,0.050000,0.050000,0.050000,0.050000,0.050000,0.050000,0.050000,0.300000,0.300000,0.300000,0.300000,0.300000,13.600000,13.600000,0.000000,0.000000],[0.000000,0.050000,0.050000,0.050000,0.050000,0.050000,0.050000,0.050000,0.300000,0.300000,0.300000,0.300000,0.300000,0.300000,0.300000,0.000000,0.000000],[0.000000,0.050000,0.050000,0.050000,0.050000,0.050000,0.050000,0.050000,0.300000,0.300000,0.300000,0.300000,0.300000,0.300000,0.054000,0.000000,0.000000],[0.000000,0.050000,0.050000,0.050000,0.050000,0.050000,0.050000,0.050000,0.300000,0.300000,0.300000,0.300000,0.300000,0.300000,0.054000,0.000000,0.000000],[0.000000,0.000000,0.000000,0.000000,0.000000,0.050000,0.050000,0.050000,0.300000,0.300000,0.300000,0.300000,0.300000,0.300000,0.054000,0.000000,0.000000],[0.000000,0.000000,0.000000,0.000000,0.000000,0.050000,0.050000,0.050000,0.300000,0.300000,0.300000,0.300000,0.300000,0.300000,0.054000,0.000000,0.000000],[0.000000,0.000000,0.000000,0.000000,0.000000,0.050000,0.050000,0.050000,0.050000,0.050000,0.050000,0.050000,0.050000,0.050000,0.054000,0.000000,0.000000]];
Cp=[[510.000000,0.750000,0.750000,0.750000,0.750000,0.750000,0.750000,0.750000,0.670000,0.670000,0.670000,0.670000,0.670000,0.670000,0.670000,0.000000,0.000000],[510.000000,0.750000,0.750000,0.750000,0.750000,0.750000,0.750000,0.750000,0.670000,0.670000,0.670000,0.670000,0.670000,0.670000,0.670000,0.000000,0.000000],[510.000000,0.750000,0.750000,0.750000,0.750000,0.750000,0.750000,0.750000,0.670000,0.670000,0.670000,0.670000,0.670000,0.125000,0.125000,0.000000,0.000000],[510.000000,0.750000,0.750000,0.750000,0.750000,0.750000,0.750000,0.750000,0.670000,0.670000,0.670000,0.670000,0.670000,0.125000,0.125000,0.000000,0.000000],[510.000000,0.750000,0.750000,0.750000,0.750000,0.750000,0.235000,0.235000,0.235000,0.235000,0.235000,0.670000,0.670000,0.125000,0.125000,0.000000,0.000000],[510.000000,0.750000,0.750000,0.750000,0.750000,0.750000,0.235000,0.235000,0.235000,0.235000,0.235000,0.670000,0.670000,0.125000,0.125000,0.000000,0.000000],[510.000000,0.750000,0.750000,0.750000,0.750000,0.750000,0.235000,0.235000,0.235000,0.235000,0.235000,0.670000,0.670000,0.125000,0.125000,0.000000,0.000000],[510.000000,0.750000,0.750000,0.750000,0.750000,0.750000,0.750000,0.750000,0.670000,0.670000,0.670000,0.670000,0.670000,0.125000,0.125000,0.000000,0.000000],[510.000000,0.750000,0.750000,0.750000,0.750000,0.750000,0.750000,0.750000,0.670000,0.670000,0.670000,0.670000,0.670000,0.125000,0.125000,0.000000,0.000000],[510.000000,0.750000,0.750000,0.750000,0.750000,0.750000,0.750000,0.750000,0.670000,0.670000,0.670000,0.670000,0.670000,0.670000,0.670000,0.000000,0.000000],[510.000000,0.750000,0.750000,0.750000,0.750000,0.750000,0.750000,0.750000,0.670000,0.670000,0.670000,0.670000,0.670000,0.670000,0.720000,0.000000,0.000000],[510.000000,0.750000,0.750000,0.750000,0.750000,0.750000,0.750000,0.750000,0.670000,0.670000,0.670000,0.670000,0.670000,0.670000,0.720000,0.000000,0.000000],[510.000000,510.000000,510.000000,510.000000,510.000000,0.750000,0.750000,0.750000,0.670000,0.670000,0.670000,0.670000,0.670000,0.670000,0.720000,0.000000,0.000000],[510.000000,510.000000,510.000000,510.000000,510.000000,0.750000,0.750000,0.750000,0.670000,0.670000,0.670000,0.670000,0.670000,0.670000,0.720000,0.000000,0.000000],[510.000000,510.000000,510.000000,510.000000,510.000000,0.750000,0.750000,0.750000,0.750000,0.750000,0.750000,0.750000,0.750000,0.750000,0.720000,0.000000,0.000000]];
